

*************************************************************

   NEOS Server Version 6.0
   Job#     : 15893322
   Password : wTQbWlUf
   User     : 
   Solver   : milp:CPLEX:AMPL
   Start    : 2025-04-16 08:49:47
   End      : 2025-04-16 08:49:50
   Host     : prod-sub-1.neos-server.org

   Disclaimer:

   This information is provided without any express or
   implied warranty. In particular, there is no warranty
   of any kind concerning the fitness of this
   information for any particular purpose.

   Announcements:
*************************************************************
You are using the solver cplexamp.
Checking ampl.mod for cplex_options...
Checking ampl.com for cplex_options...
Executing AMPL.
processing data.
processing commands.
Executing on prod-exec-1.neos-server.org
C = 5

set N := 1 2 3 4;

:   P    W    :=
1    2   1
2    8   2
3   15   3
4   12   4
;

subject to C_capacity:
	X[1] + 2*X[2] + 3*X[3] + 4*X[4] <= 5;

maximize objective_function:
	2*X[1] + 8*X[2] + 15*X[3] + 12*X[4];


"option presolve 10;" used, but "option presolve 2;" would suffice.
4 variables:
	2 binary variables
	2 integer variables
1 constraint, all linear; 4 nonzeros
	1 inequality constraint
1 linear objective; 4 nonzeros.

CPLEX 22.1.2:   tech:threads = 4
  tech:outlev = 1
 - Version identifier: 22.1.2.0 | 2024-11-26 | 0edbb82fd
 - CPXPARAM_Threads                                 4
 - CPXPARAM_MIP_Display                             3
 - Found incumbent of value 0.000000 after 0.00 sec. (0.00 ticks)
 - Tried aggregator 1 time.
 - MIP Presolve eliminated 1 rows and 1 columns.
 - MIP Presolve added 1 rows and 1 columns.
 - MIP Presolve modified 4 coefficients.
 - Reduced MIP has 1 rows, 4 columns, and 4 nonzeros.
 - Reduced MIP has 2 binaries, 2 generals, 0 SOSs, and 0 indicators.
 - Presolve time = 0.00 sec. (0.01 ticks)
 - Probing time = 0.00 sec. (0.00 ticks)
 - Tried aggregator 1 time.
 - MIP Presolve eliminated 1 rows and 1 columns.
 - MIP Presolve added 1 rows and 1 columns.
 - MIP Presolve modified 4 coefficients.
 - Reduced MIP has 1 rows, 4 columns, and 4 nonzeros.
 - Reduced MIP has 2 binaries, 2 generals, 0 SOSs, and 0 indicators.
 - Presolve time = 0.00 sec. (0.01 ticks)
 - Probing time = 0.00 sec. (0.00 ticks)
 - Clique table members: 1.
 - MIP emphasis: balance optimality and feasibility.
 - MIP search method: dynamic search.
 - Parallel mode: deterministic, using up to 4 threads.
 - Root relaxation solution time = 0.00 sec. (0.00 ticks)
 - 
        Nodes                                         Cuts/
 -    Node  Left     Objective  IInf  Best Integer    Best Bound    ItCnt     Gap

 - *     0+    0                            0.0000       53.0000              --- 
 - Found incumbent of value 0.000000 after 0.00 sec. (0.02 ticks)
 - *     0+    0                           18.0000       53.0000           194.44%
 - Found incumbent of value 18.000000 after 0.00 sec. (0.02 ticks)
 - *     0     0      integral     0       23.0000       23.0000        1    0.00%
 - Elapsed time = 0.00 sec. (0.02 ticks, tree = 0.00 MB, solutions = 2)
 - Found incumbent of value 23.000000 after 0.00 sec. (0.02 ticks)
 - 
Root node processing (before b&c):
 -   Real time             =    0.00 sec. (0.02 ticks)
 - Parallel b&c, 4 threads:
 -   Real time             =    0.00 sec. (0.00 ticks)
 -   Sync time (average)   =    0.00 sec.
 -   Wait time (average)   =    0.00 sec.
 -                           ------------
 - Total (root+branch&cut) =    0.00 sec. (0.02 ticks)
CPLEX 22.1.2: optimal solution; objective 23
1 simplex iterations
objective_function = 23

X [*] :=
1  0
2  1
3  1
4  0
;

NEOS Server Home
